c User generated cnf file
p cnf 12 37
1 -2 5 0 
8 5 -2 0 
-7 4 7 0 
8 2 -1 0 
10 10 -5 0 
3 9 -3 0 
11 -7 4 0 
-9 6 8 0 
-8 8 8 0 
5 1 -7 0 
1 -4 1 0 
9 -10 5 0 
1 2 -12 0 
8 -4 9 0 
7 5 -5 0 
10 4 -3 0 
11 9 -7 0 
-11 11 5 0 
7 -12 5 0 
-8 6 5 0 
-6 12 7 0 
-11 10 10 0 
-1 1 10 0 
6 7 -8 0 
-4 9 11 0 
8 7 -9 0 
7 12 -8 0 
11 5 -3 0 
10 9 -8 0 
6 9 -8 0 
-5 9 4 0 
10 -9 3 0 
-1 12 1 0 
9 7 -4 0 
1 6 -5 0 
-12 6 1 0 
11 -1 2 0 
